400 40 1 79040
400 40 2 75119
400 40 3 72733
400 45 1 78691
400 45 2 75080
400 45 3 72711
400 50 1 79116
400 50 2 75248
400 50 3 74763
400 55 1 79300
400 55 2 77791
400 55 3 74341
400 60 1 79120
400 60 2 76507
400 60 3 73841
450 40 1 79042
450 40 2 76256
450 40 3 72319
450 45 1 78410
450 45 2 74845
450 45 3 73706
450 50 1 79153
450 50 2 75996
450 50 3 74359
450 55 1 79558
450 55 2 75278
450 55 3 73828
450 60 1 78867
450 60 2 76298
450 60 3 73477
500 40 1 78362
500 40 2 76840
500 40 3 73321
500 45 1 79084
500 45 2 74882
500 45 3 72481
500 50 1 79609
500 50 2 75365
500 50 3 73086
500 55 1 79254
500 55 2 75349
500 55 3 74076
500 60 1 79703
500 60 2 76624
500 60 3 73226
best: popul=500 in_tour=60 mutati=1 fitness=79703
42 200 0  0 0 0 0 0 0 0 0 0 0 0 0 0 0 0 0 0 0 0 0 0 0 0 0 0 0 0 0 0 0 0 0 0 0 0 0 0 0 0 0 0 0 0 0 0 0 0 0 0 0 0 0 0 0 0 0 0 0 0 0 0 0 0 0 0 0 0 0 0 0 0 0 0 0 0 0 0 0 0 0 0 0 0 0 0 0 0 0 0 0 0 0 0 0 0 0 0 0 0 0 0 0 0 0 0 0 0 0 0 0 0 0 0 0 0 0 0 0 0 0 0 0 0 0 0 0 0 0 0 0 0 0 0 0 0 0 0 0 0 0 0 0 0 0 0 0 0 0 0 0 0 0 0 0 0 0 0 0 0 0 0 0 0 0 0 0 0 0 0 0 0 0 0 0 0 0 0 0 0 0 0 0 0 0 0 0 0 0 0 0 0 0 0 0 0 0 0 0 0 0
